Maximize

x_0


Subject To


z0:  - x_0 + 0 x$_0_0  + 3 x$_0_1  + 5 x$_0_2  + 10 x$_0_3  + 11 x$_0_4 = 0
z1:  - x_1 + 0 x$_1_0  + 3 x$_1_1  + 5 x$_1_2  + 10 x$_1_3  + 11 x$_1_4 = 0
z2:  - x_2 + 0 x$_2_0  + 3 x$_2_1  + 5 x$_2_2  + 10 x$_2_3  + 11 x$_2_4 = 0
z3: x$_0_0  + x$_0_1  + x$_0_2  + x$_0_3  + x$_0_4 = 1
z4: x$_1_0  + x$_1_1  + x$_1_2  + x$_1_3  + x$_1_4 = 1
z5: x$_2_0  + x$_2_1  + x$_2_2  + x$_2_3  + x$_2_4 = 1
z6: x$_3_0  + x$_3_1  + x$_3_2  + x$_3_3  + x$_3_4 = 1
z7: x$_4_0  + x$_4_1  + x$_4_2  + x$_4_3  + x$_4_4 = 1
z8: x$_0_0  + x$_1_0  + x$_2_0  + x$_3_0  + x$_4_0 = 1
z9: x$_0_1  + x$_1_1  + x$_2_1  + x$_3_1  + x$_4_1 = 1
z10: x$_0_2  + x$_1_2  + x$_2_2  + x$_3_2  + x$_4_2 = 1
z11: x$_0_3  + x$_1_3  + x$_2_3  + x$_3_3  + x$_4_3 = 1
z12: x$_0_4  + x$_1_4  + x$_2_4  + x$_3_4  + x$_4_4 = 1


Bounds

x_0 <= 100
x_1 <= 100
x_2 <= 100



Binary

x$_0_0 x$_0_1 x$_0_2 x$_0_3 x$_0_4 x$_1_0 x$_1_1 x$_1_2 x$_1_3 x$_1_4 x$_2_0 x$_2_1 x$_2_2 x$_2_3 x$_2_4 x$_3_0 x$_3_1 x$_3_2 x$_3_3 x$_3_4 x$_4_0 x$_4_1 x$_4_2 x$_4_3 x$_4_4


General

 x_0 x_1 x_2



End
